p edge 64 512
e 1 53
e 1 23
e 1 18
e 1 63
e 1 50
e 1 38
e 1 30
e 1 43
e 1 27
e 1 34
e 1 48
e 1 51
e 1 35
e 2 32
e 2 15
e 2 55
e 2 20
e 2 12
e 2 57
e 2 37
e 2 56
e 2 50
e 2 60
e 2 46
e 2 25
e 2 18
e 2 19
e 2 45
e 2 43
e 3 27
e 3 7
e 3 15
e 3 12
e 3 44
e 3 64
e 3 5
e 3 16
e 3 52
e 3 9
e 3 36
e 3 50
e 3 41
e 3 13
e 3 43
e 3 60
e 3 18
e 3 33
e 4 21
e 4 34
e 4 9
e 4 58
e 4 24
e 4 15
e 4 54
e 4 6
e 4 20
e 4 31
e 4 49
e 4 63
e 4 64
e 4 37
e 4 57
e 4 28
e 4 45
e 5 63
e 5 51
e 5 16
e 5 22
e 5 50
e 5 56
e 5 25
e 5 58
e 5 7
e 5 36
e 5 34
e 5 42
e 5 43
e 5 45
e 5 18
e 5 14
e 5 53
e 6 45
e 6 25
e 6 39
e 6 47
e 6 14
e 6 30
e 6 44
e 6 9
e 6 51
e 6 46
e 6 58
e 6 42
e 6 34
e 6 36
e 6 38
e 6 56
e 6 52
e 7 37
e 7 62
e 7 13
e 7 45
e 7 16
e 7 8
e 7 53
e 7 9
e 7 33
e 7 51
e 7 42
e 7 61
e 7 29
e 7 24
e 8 62
e 8 58
e 8 47
e 8 20
e 8 45
e 8 41
e 8 48
e 8 52
e 8 9
e 8 19
e 8 21
e 8 16
e 8 49
e 8 57
e 8 33
e 8 15
e 8 54
e 8 53
e 8 40
e 9 24
e 9 45
e 9 40
e 9 10
e 9 37
e 9 63
e 9 43
e 9 55
e 10 56
e 10 62
e 10 63
e 10 48
e 10 38
e 10 28
e 10 14
e 10 16
e 10 45
e 10 21
e 10 57
e 10 46
e 11 33
e 11 53
e 11 21
e 11 30
e 11 54
e 11 31
e 11 13
e 11 14
e 11 59
e 11 52
e 11 37
e 11 36
e 11 63
e 11 16
e 11 41
e 12 44
e 12 49
e 12 38
e 12 61
e 12 33
e 12 64
e 12 21
e 12 28
e 12 51
e 12 22
e 12 45
e 12 41
e 12 48
e 12 47
e 12 54
e 13 20
e 13 48
e 13 37
e 13 16
e 13 29
e 13 33
e 13 21
e 13 56
e 13 30
e 13 40
e 13 59
e 13 23
e 13 50
e 13 15
e 13 63
e 13 27
e 14 33
e 14 15
e 14 42
e 14 19
e 14 64
e 14 47
e 14 41
e 14 24
e 14 45
e 14 50
e 14 35
e 14 60
e 14 58
e 14 17
e 14 51
e 14 59
e 14 38
e 15 24
e 15 57
e 15 35
e 15 22
e 15 43
e 15 64
e 15 56
e 15 52
e 15 41
e 15 55
e 15 31
e 15 32
e 15 50
e 15 19
e 15 62
e 15 27
e 15 25
e 15 34
e 15 30
e 16 60
e 16 64
e 16 20
e 16 36
e 16 48
e 16 22
e 16 33
e 16 42
e 16 39
e 16 25
e 16 32
e 17 35
e 17 58
e 17 44
e 17 54
e 17 33
e 17 60
e 17 62
e 17 51
e 17 52
e 17 57
e 17 38
e 17 22
e 17 64
e 18 57
e 18 27
e 18 43
e 18 22
e 18 58
e 18 41
e 18 38
e 18 40
e 18 42
e 18 23
e 18 21
e 18 35
e 19 53
e 19 57
e 19 55
e 19 34
e 19 31
e 19 22
e 19 62
e 19 26
e 20 51
e 20 56
e 20 47
e 20 44
e 20 57
e 20 52
e 20 40
e 20 39
e 20 49
e 20 58
e 20 38
e 21 60
e 21 39
e 21 31
e 21 59
e 21 35
e 21 40
e 21 63
e 21 29
e 21 61
e 21 55
e 21 51
e 21 64
e 22 56
e 22 44
e 22 28
e 22 53
e 22 52
e 22 39
e 22 64
e 22 46
e 22 33
e 22 59
e 22 48
e 22 60
e 22 25
e 22 62
e 23 26
e 23 29
e 23 53
e 23 44
e 23 42
e 24 58
e 24 57
e 24 41
e 24 35
e 24 32
e 24 54
e 24 27
e 24 53
e 25 49
e 25 43
e 25 58
e 25 31
e 25 47
e 25 62
e 25 38
e 25 61
e 25 63
e 25 56
e 26 45
e 26 27
e 26 48
e 26 38
e 26 55
e 26 37
e 26 49
e 26 59
e 26 57
e 26 44
e 26 42
e 26 31
e 26 43
e 26 64
e 26 51
e 27 40
e 27 57
e 27 36
e 27 38
e 27 39
e 27 31
e 27 56
e 27 33
e 27 37
e 27 45
e 27 51
e 27 42
e 27 46
e 27 35
e 28 52
e 28 50
e 28 59
e 28 57
e 28 58
e 28 43
e 28 54
e 28 41
e 29 39
e 29 61
e 29 59
e 29 34
e 29 36
e 29 54
e 29 46
e 29 48
e 29 45
e 29 56
e 29 60
e 29 51
e 29 44
e 30 49
e 30 40
e 30 52
e 30 47
e 30 61
e 31 51
e 31 44
e 31 56
e 31 42
e 31 34
e 31 36
e 31 49
e 32 63
e 32 45
e 32 33
e 32 35
e 32 59
e 32 52
e 32 34
e 32 48
e 33 43
e 33 51
e 33 56
e 33 50
e 33 52
e 34 64
e 34 43
e 34 59
e 34 36
e 34 49
e 34 40
e 34 63
e 34 53
e 34 51
e 35 36
e 35 44
e 35 53
e 35 42
e 36 48
e 36 43
e 36 57
e 36 41
e 36 49
e 36 51
e 37 63
e 37 52
e 37 42
e 37 64
e 37 46
e 38 55
e 38 40
e 38 60
e 38 51
e 39 40
e 39 42
e 39 55
e 39 51
e 39 64
e 39 60
e 40 49
e 40 45
e 40 48
e 40 46
e 40 42
e 40 62
e 41 51
e 41 46
e 41 61
e 41 57
e 41 53
e 42 55
e 42 53
e 42 48
e 42 51
e 42 62
e 42 49
e 42 43
e 42 61
e 43 53
e 43 60
e 43 59
e 43 54
e 43 48
e 43 55
e 44 62
e 44 51
e 44 56
e 44 46
e 44 48
e 45 51
e 45 62
e 45 59
e 45 57
e 45 60
e 45 55
e 45 63
e 46 62
e 46 61
e 47 58
e 47 52
e 47 64
e 47 61
e 48 57
e 49 63
e 49 58
e 50 56
e 50 57
e 51 52
e 51 59
e 52 61
e 53 59
e 53 61
e 54 55
e 54 63
e 54 59
e 54 61
e 55 57
e 55 59
e 55 60
e 56 64
e 57 61
e 58 62
e 59 61
e 61 64
e 62 64
